Version identifier: 22.1.1.0 | 2022-11-28 | 9160aff4d
CPXPARAM_Threads                                 1
CPXPARAM_MIP_Strategy_VariableSelect             3
CPXPARAM_TimeLimit                               599.99999243800005
1 of 1 MIP starts provided solutions.
MIP start 'm1' defined initial solution with objective 119.0000.
Tried aggregator 1 time.
MIP Presolve eliminated 725 rows and 1428 columns.
MIP Presolve modified 18 coefficients.
Reduced MIP has 1430 rows, 3213 columns, and 81822 nonzeros.
Reduced MIP has 3213 binaries, 0 generals, 0 SOSs, and 0 indicators.
Presolve time = 0.05 sec. (127.89 ticks)
Probing time = 0.01 sec. (12.68 ticks)
Tried aggregator 1 time.
Detecting symmetries...
MIP Presolve modified 6 coefficients.
Reduced MIP has 1430 rows, 3213 columns, and 81945 nonzeros.
Reduced MIP has 3213 binaries, 0 generals, 0 SOSs, and 0 indicators.
Presolve time = 0.05 sec. (123.06 ticks)
Probing time = 0.01 sec. (12.69 ticks)
Clique table members: 713.
MIP emphasis: balance optimality and feasibility.
MIP search method: dynamic search.
Parallel mode: none, using 1 thread.
Root relaxation solution time = 0.01 sec. (28.70 ticks)

        Nodes                                         Cuts/
   Node  Left     Objective  IInf  Best Integer    Best Bound    ItCnt     Gap

*     0+    0                          119.0000    63903.0000              --- 
      0     0      357.0000    52      119.0000      357.0000      517  200.00%
*     0+    0                          357.0000      357.0000             0.00%
      0     0        cutoff            357.0000      357.0000      517    0.00%
Elapsed time = 0.18 sec. (410.10 ticks, tree = 0.01 MB, solutions = 2)

Root node processing (before b&c):
  Real time             =    0.18 sec. (410.28 ticks)
Sequential b&c:
  Real time             =    0.00 sec. (0.00 ticks)
                          ------------
Total (root+branch&cut) =    0.18 sec. (410.28 ticks)
Primal:	357
Dual:	357
Status:	Optimal
Time:	0.19
Sequence:
	0
	1
	4
	0
	9
	1
	5
	0
	9
	5
	5
	10
	9
	10
	10
	4
	1
	9
	0
	9
	9
	9
	0
	9
	5
	5
	9
	5
	5
	9
	5
	9
	5
	9
	5
	5
	9
	0
	5
	5
	9
	5
	5
	9
	5
	5
	9
	5
	9
	5
	5
	10
	9
	10
	9
	4
	9
	0
	9
	9
	5
	0
	9
	1
	10
	9
	10
	10
	9
	10
	9
	4
	0
	10
	9
	0
	9
	4
	9
	2
	9
	4
	4
	9
	4
	9
	9
	9
	9
	5
	5
	9
	0
	4
	5
	0
	1
	4
	10
	0
	5
	4
	0
	9
	5
	0
	4
	5
	0
	10
	4
	0
	5
	4
	0
	4
	1
	0
	5
	4
	0
	1
	4
	4
	0
	1
	9
	0
	5
	4
	1
	0
	9
	5
	9
	0
	9
	4
	9
	2
	5
	5
	9
	1
	0
	4
	9
	9
	1
	9
	9
	9
	0
	9
	4
	8
	9
	4
	9
	4
	0
	4
	4
	0
	5
	4
	0
	1
	1
	4
	1
	8
	10
	10
	4
	0
	4
	5
	9
	0
	9
	1
	0
	9
	9
	9
	0
	9
	9
	9
	1
	0
	4
	9
	0
	9
	9
	0
	9
	1
	2
	4
	9
	1
	9
	9
	0
	5
	5
	9
	9
	9
	0
	9
	9
	5
	9
	5
	5
	9
	5
	1
	5
	9
	5
	5
	0
	9
	5
	0
	9
	5
	1
	9
	0
	1
	1
	9
	5
	0
	1
	9
	0
	5
	9
	1
	0
	10
	9
	0
	1
	4
	0
	9
	9
	9
	5
	0
	9
	1
	9
	9
	0
	9
	5
	0
	9
	9
	5
	0
	9
	9
	0
	4
	9
	9
	5
	5
	9
	5
	5
	9
	4
	5
	0
	5
	9
	5
	5
	9
	1
	5
	5
	9
	5
	5
	9
	5
	5
	9
	5
	5
	1
	8
	9
	9
	9
	4
	0
	4
	9
	0
	9
	9
	4
	4
	9
	4
	4
	0
	4
	4
	0
	4
	4
	9
	4
	4
	0
	4
	9
	4
	0
	4
	4
	1
	9
	0
	4
	4
	9
	4
	0
	9
	4
	0
	9
	1
	4
	4
	9
	9
	8
	4
	1
	5
	0
